p cnf 68 212
a 29 54 0
e 1 2 3 4 5 6 7 8 9 10 11 12 13 14 15 16 17 18 19 20 21 22 23 24 25 26 27 28 30 31 32 33 34 35 36 37 38 39 40 41 42 43 44 45 46 47 48 49 50 51 52 53 55 56 57 58 59 60 61 62 63 64 65 66 67 68 0
3 -1 0
3 2 0
1 -2 -3 0
-3 -4 -5 0
3 4 -5 0
-3 4 5 0
3 -4 5 0
-6 5 0
-6 3 0
-5 -3 6 0
7 -4 0
7 6 0
4 -6 -7 0
3 -7 -8 0
-3 7 -8 0
3 7 8 0
-3 -7 8 0
9 10 -11 0
-9 -10 -11 0
9 -10 11 0
-9 10 11 0
12 3 0
12 -11 0
-3 11 -12 0
-14 -2 0
-14 13 0
2 -13 14 0
15 -12 0
15 -14 0
12 14 -15 0
17 -16 0
17 4 0
16 -4 -17 0
17 12 -18 0
-17 -12 -18 0
17 -12 18 0
-17 12 18 0
19 -15 0
19 -18 0
15 18 -19 0
1 -13 -20 0
-1 13 -20 0
1 13 20 0
-1 -13 20 0
-21 -9 0
-21 20 0
9 -20 21 0
22 14 0
22 -21 0
-14 21 -22 0
-23 -19 0
-23 -22 0
19 22 23 0
24 8 0
24 23 0
-8 -23 -24 0
-26 14 0
-26 -25 0
-14 25 26 0
27 7 0
27 -26 0
-7 26 -27 0
-28 24 0
-28 -27 0
-24 27 28 0
30 29 0
30 -29 0
31 30 0
31 -5 0
-30 5 -31 0
4 -29 -32 0
-4 29 -32 0
4 29 32 0
-4 -29 32 0
33 -29 0
33 -32 0
29 32 -33 0
-31 33 -34 0
31 -33 -34 0
-31 -33 34 0
31 33 34 0
35 -28 0
35 -34 0
28 34 -35 0
-10 14 -36 0
10 -14 -36 0
-10 -14 36 0
10 14 36 0
-37 -10 0
-37 32 0
10 -32 37 0
38 5 0
38 -37 0
-5 37 -38 0
36 -38 -39 0
-36 38 -39 0
36 38 39 0
-36 -38 39 0
-4 40 0
4 40 0
-40 -25 -41 0
40 25 -41 0
-40 25 41 0
40 -25 41 0
-12 5 -42 0
12 -5 -42 0
-12 -5 42 0
12 5 42 0
43 -11 0
43 10 0
11 -10 -43 0
-44 42 0
-44 43 0
-42 -43 44 0
45 -44 0
45 -7 0
44 7 -45 0
44 -46 0
-44 -46 0
47 26 0
47 46 0
-26 -46 -47 0
48 -12 0
48 47 0
12 -47 -48 0
49 45 0
49 -48 0
-45 48 -49 0
29 43 -50 0
-29 -43 -50 0
29 -43 50 0
-29 43 50 0
-51 32 0
-51 -7 0
-32 7 51 0
-50 -51 -52 0
50 51 -52 0
-50 51 52 0
50 -51 52 0
-53 -46 0
-53 -46 0
46 53 0
54 52 0
54 53 0
-52 -53 -54 0
6 9 -55 0
-6 -9 -55 0
6 -9 55 0
-6 9 55 0
55 -40 -56 0
-55 40 -56 0
55 40 56 0
-55 -40 56 0
-14 43 -57 0
14 -43 -57 0
-14 -43 57 0
14 43 57 0
58 5 0
58 57 0
-5 -57 -58 0
-59 -56 0
-59 -58 0
56 58 59 0
-60 -54 0
-60 59 0
54 -59 60 0
49 60 -61 0
-49 -60 -61 0
49 -60 61 0
-49 60 61 0
63 -5 0
63 44 0
5 -44 -63 0
62 63 -64 0
-62 -63 -64 0
62 -63 64 0
-62 63 64 0
65 -61 0
65 -64 0
61 64 -65 0
-41 65 -66 0
41 -65 -66 0
-41 -65 66 0
41 65 66 0
39 66 -67 0
-39 -66 -67 0
39 -66 67 0
-39 66 67 0
35 -67 -68 0
-35 67 -68 0
35 67 68 0
-35 -67 68 0
-14 40 -54 -10 8 0
-64 55 -13 42 -35 0
53 4 51 14 0
-67 -7 34 -37 0
5 42 -20 -18 0
48 32 -34 -1 0
-63 31 -59 36 32 -52 37 40 0
19 26 -9 -31 62 37 30 0
46 -29 12 -33 30 -20 -23 15 0
15 67 -13 -11 -57 -6 0
18 -60 -35 28 49 2 0
-15 57 27 -62 49 0
-10 61 64 0
-37 6 21 36 13 -9 3 48 0
17 28 -35 -59 -60 -34 0
13 -63 -35 24 -21 -26 -34 0
-40 64 15 -60 0
32 53 28 0
46 -50 -53 0
68 0
